c Generated after 1 tries
c Graph with 160 nodes and 1000 edges, Max edges:12720
c generated from an undirected graph
c to solve unweighted MaxCut
p cnf 160 2000
1 15 0
-1 -15 0
1 24 0
-1 -24 0
1 36 0
-1 -36 0
1 53 0
-1 -53 0
1 54 0
-1 -54 0
1 88 0
-1 -88 0
1 91 0
-1 -91 0
1 106 0
-1 -106 0
1 114 0
-1 -114 0
1 119 0
-1 -119 0
1 133 0
-1 -133 0
1 146 0
-1 -146 0
1 156 0
-1 -156 0
2 3 0
-2 -3 0
2 16 0
-2 -16 0
2 19 0
-2 -19 0
2 46 0
-2 -46 0
2 62 0
-2 -62 0
2 70 0
-2 -70 0
2 74 0
-2 -74 0
2 100 0
-2 -100 0
2 137 0
-2 -137 0
2 158 0
-2 -158 0
3 11 0
-3 -11 0
3 24 0
-3 -24 0
3 29 0
-3 -29 0
3 36 0
-3 -36 0
3 45 0
-3 -45 0
3 72 0
-3 -72 0
3 79 0
-3 -79 0
3 114 0
-3 -114 0
3 117 0
-3 -117 0
3 125 0
-3 -125 0
3 126 0
-3 -126 0
3 130 0
-3 -130 0
3 143 0
-3 -143 0
4 11 0
-4 -11 0
4 31 0
-4 -31 0
4 33 0
-4 -33 0
4 43 0
-4 -43 0
4 52 0
-4 -52 0
4 68 0
-4 -68 0
4 79 0
-4 -79 0
4 82 0
-4 -82 0
4 85 0
-4 -85 0
4 106 0
-4 -106 0
4 112 0
-4 -112 0
4 144 0
-4 -144 0
4 153 0
-4 -153 0
5 14 0
-5 -14 0
5 19 0
-5 -19 0
5 32 0
-5 -32 0
5 34 0
-5 -34 0
5 57 0
-5 -57 0
5 65 0
-5 -65 0
5 82 0
-5 -82 0
5 96 0
-5 -96 0
5 102 0
-5 -102 0
5 107 0
-5 -107 0
5 124 0
-5 -124 0
5 146 0
-5 -146 0
5 148 0
-5 -148 0
5 154 0
-5 -154 0
6 8 0
-6 -8 0
6 15 0
-6 -15 0
6 18 0
-6 -18 0
6 21 0
-6 -21 0
6 27 0
-6 -27 0
6 32 0
-6 -32 0
6 34 0
-6 -34 0
6 37 0
-6 -37 0
6 46 0
-6 -46 0
6 51 0
-6 -51 0
6 55 0
-6 -55 0
6 63 0
-6 -63 0
6 69 0
-6 -69 0
6 79 0
-6 -79 0
6 81 0
-6 -81 0
6 83 0
-6 -83 0
6 105 0
-6 -105 0
6 109 0
-6 -109 0
6 114 0
-6 -114 0
6 122 0
-6 -122 0
6 131 0
-6 -131 0
6 137 0
-6 -137 0
6 142 0
-6 -142 0
7 24 0
-7 -24 0
7 65 0
-7 -65 0
7 85 0
-7 -85 0
7 96 0
-7 -96 0
7 99 0
-7 -99 0
7 115 0
-7 -115 0
7 116 0
-7 -116 0
7 128 0
-7 -128 0
7 132 0
-7 -132 0
7 143 0
-7 -143 0
7 150 0
-7 -150 0
8 9 0
-8 -9 0
8 22 0
-8 -22 0
8 24 0
-8 -24 0
8 36 0
-8 -36 0
8 43 0
-8 -43 0
8 50 0
-8 -50 0
8 53 0
-8 -53 0
8 56 0
-8 -56 0
8 68 0
-8 -68 0
8 71 0
-8 -71 0
8 85 0
-8 -85 0
8 89 0
-8 -89 0
8 114 0
-8 -114 0
8 127 0
-8 -127 0
8 132 0
-8 -132 0
8 154 0
-8 -154 0
9 50 0
-9 -50 0
9 53 0
-9 -53 0
9 79 0
-9 -79 0
9 81 0
-9 -81 0
9 95 0
-9 -95 0
9 101 0
-9 -101 0
9 103 0
-9 -103 0
9 134 0
-9 -134 0
9 146 0
-9 -146 0
10 11 0
-10 -11 0
10 21 0
-10 -21 0
10 23 0
-10 -23 0
10 25 0
-10 -25 0
10 32 0
-10 -32 0
10 54 0
-10 -54 0
10 71 0
-10 -71 0
10 72 0
-10 -72 0
10 93 0
-10 -93 0
10 134 0
-10 -134 0
10 137 0
-10 -137 0
10 139 0
-10 -139 0
10 147 0
-10 -147 0
10 153 0
-10 -153 0
11 12 0
-11 -12 0
11 18 0
-11 -18 0
11 30 0
-11 -30 0
11 31 0
-11 -31 0
11 43 0
-11 -43 0
11 64 0
-11 -64 0
11 78 0
-11 -78 0
11 79 0
-11 -79 0
11 87 0
-11 -87 0
11 106 0
-11 -106 0
11 107 0
-11 -107 0
11 123 0
-11 -123 0
12 16 0
-12 -16 0
12 26 0
-12 -26 0
12 51 0
-12 -51 0
12 62 0
-12 -62 0
12 68 0
-12 -68 0
12 69 0
-12 -69 0
12 72 0
-12 -72 0
12 78 0
-12 -78 0
12 91 0
-12 -91 0
12 92 0
-12 -92 0
12 122 0
-12 -122 0
12 147 0
-12 -147 0
12 149 0
-12 -149 0
12 155 0
-12 -155 0
13 47 0
-13 -47 0
13 59 0
-13 -59 0
13 67 0
-13 -67 0
13 73 0
-13 -73 0
13 75 0
-13 -75 0
13 77 0
-13 -77 0
13 86 0
-13 -86 0
13 128 0
-13 -128 0
13 160 0
-13 -160 0
14 37 0
-14 -37 0
14 39 0
-14 -39 0
14 40 0
-14 -40 0
14 41 0
-14 -41 0
14 47 0
-14 -47 0
14 122 0
-14 -122 0
14 139 0
-14 -139 0
14 148 0
-14 -148 0
14 152 0
-14 -152 0
15 24 0
-15 -24 0
15 26 0
-15 -26 0
15 55 0
-15 -55 0
15 67 0
-15 -67 0
15 94 0
-15 -94 0
15 95 0
-15 -95 0
15 105 0
-15 -105 0
15 123 0
-15 -123 0
15 130 0
-15 -130 0
15 145 0
-15 -145 0
15 147 0
-15 -147 0
15 151 0
-15 -151 0
16 53 0
-16 -53 0
16 54 0
-16 -54 0
16 78 0
-16 -78 0
16 85 0
-16 -85 0
16 111 0
-16 -111 0
16 120 0
-16 -120 0
16 124 0
-16 -124 0
16 127 0
-16 -127 0
16 149 0
-16 -149 0
16 160 0
-16 -160 0
17 18 0
-17 -18 0
17 23 0
-17 -23 0
17 39 0
-17 -39 0
17 40 0
-17 -40 0
17 50 0
-17 -50 0
17 60 0
-17 -60 0
17 72 0
-17 -72 0
17 78 0
-17 -78 0
17 117 0
-17 -117 0
17 118 0
-17 -118 0
17 119 0
-17 -119 0
17 141 0
-17 -141 0
17 151 0
-17 -151 0
18 37 0
-18 -37 0
18 44 0
-18 -44 0
18 81 0
-18 -81 0
18 111 0
-18 -111 0
18 124 0
-18 -124 0
18 142 0
-18 -142 0
18 155 0
-18 -155 0
19 22 0
-19 -22 0
19 29 0
-19 -29 0
19 30 0
-19 -30 0
19 38 0
-19 -38 0
19 67 0
-19 -67 0
19 73 0
-19 -73 0
19 74 0
-19 -74 0
19 86 0
-19 -86 0
19 92 0
-19 -92 0
19 96 0
-19 -96 0
19 102 0
-19 -102 0
19 109 0
-19 -109 0
19 112 0
-19 -112 0
19 118 0
-19 -118 0
19 136 0
-19 -136 0
19 139 0
-19 -139 0
19 147 0
-19 -147 0
19 153 0
-19 -153 0
20 23 0
-20 -23 0
20 51 0
-20 -51 0
20 52 0
-20 -52 0
20 53 0
-20 -53 0
20 54 0
-20 -54 0
20 56 0
-20 -56 0
20 68 0
-20 -68 0
20 80 0
-20 -80 0
20 91 0
-20 -91 0
20 109 0
-20 -109 0
20 112 0
-20 -112 0
20 146 0
-20 -146 0
20 148 0
-20 -148 0
20 150 0
-20 -150 0
20 157 0
-20 -157 0
20 159 0
-20 -159 0
21 55 0
-21 -55 0
21 94 0
-21 -94 0
21 102 0
-21 -102 0
21 109 0
-21 -109 0
21 114 0
-21 -114 0
21 115 0
-21 -115 0
21 121 0
-21 -121 0
21 128 0
-21 -128 0
21 131 0
-21 -131 0
22 33 0
-22 -33 0
22 39 0
-22 -39 0
22 49 0
-22 -49 0
22 68 0
-22 -68 0
22 74 0
-22 -74 0
22 81 0
-22 -81 0
22 110 0
-22 -110 0
22 121 0
-22 -121 0
22 140 0
-22 -140 0
22 149 0
-22 -149 0
23 25 0
-23 -25 0
23 43 0
-23 -43 0
23 46 0
-23 -46 0
23 52 0
-23 -52 0
23 67 0
-23 -67 0
23 75 0
-23 -75 0
23 89 0
-23 -89 0
23 95 0
-23 -95 0
23 110 0
-23 -110 0
23 120 0
-23 -120 0
23 125 0
-23 -125 0
23 147 0
-23 -147 0
23 154 0
-23 -154 0
24 36 0
-24 -36 0
24 54 0
-24 -54 0
24 57 0
-24 -57 0
24 58 0
-24 -58 0
24 75 0
-24 -75 0
24 77 0
-24 -77 0
24 121 0
-24 -121 0
24 134 0
-24 -134 0
24 138 0
-24 -138 0
25 56 0
-25 -56 0
25 87 0
-25 -87 0
25 95 0
-25 -95 0
25 137 0
-25 -137 0
25 149 0
-25 -149 0
26 51 0
-26 -51 0
26 57 0
-26 -57 0
26 71 0
-26 -71 0
26 91 0
-26 -91 0
26 126 0
-26 -126 0
26 133 0
-26 -133 0
26 135 0
-26 -135 0
26 136 0
-26 -136 0
26 137 0
-26 -137 0
26 147 0
-26 -147 0
27 35 0
-27 -35 0
27 47 0
-27 -47 0
27 70 0
-27 -70 0
27 96 0
-27 -96 0
27 103 0
-27 -103 0
27 116 0
-27 -116 0
27 129 0
-27 -129 0
27 136 0
-27 -136 0
27 143 0
-27 -143 0
27 145 0
-27 -145 0
27 155 0
-27 -155 0
28 51 0
-28 -51 0
28 59 0
-28 -59 0
28 61 0
-28 -61 0
28 74 0
-28 -74 0
28 114 0
-28 -114 0
28 125 0
-28 -125 0
28 130 0
-28 -130 0
28 133 0
-28 -133 0
28 154 0
-28 -154 0
28 160 0
-28 -160 0
29 70 0
-29 -70 0
29 71 0
-29 -71 0
29 79 0
-29 -79 0
29 82 0
-29 -82 0
29 87 0
-29 -87 0
29 104 0
-29 -104 0
29 105 0
-29 -105 0
29 131 0
-29 -131 0
29 134 0
-29 -134 0
29 136 0
-29 -136 0
29 138 0
-29 -138 0
29 140 0
-29 -140 0
29 147 0
-29 -147 0
30 37 0
-30 -37 0
30 43 0
-30 -43 0
30 53 0
-30 -53 0
30 62 0
-30 -62 0
30 78 0
-30 -78 0
30 82 0
-30 -82 0
30 94 0
-30 -94 0
30 115 0
-30 -115 0
30 132 0
-30 -132 0
30 134 0
-30 -134 0
30 146 0
-30 -146 0
30 147 0
-30 -147 0
30 148 0
-30 -148 0
31 32 0
-31 -32 0
31 63 0
-31 -63 0
31 65 0
-31 -65 0
31 117 0
-31 -117 0
31 119 0
-31 -119 0
31 123 0
-31 -123 0
31 150 0
-31 -150 0
32 47 0
-32 -47 0
32 54 0
-32 -54 0
32 57 0
-32 -57 0
32 74 0
-32 -74 0
32 79 0
-32 -79 0
32 80 0
-32 -80 0
32 113 0
-32 -113 0
33 50 0
-33 -50 0
33 51 0
-33 -51 0
33 65 0
-33 -65 0
33 78 0
-33 -78 0
33 91 0
-33 -91 0
33 92 0
-33 -92 0
33 93 0
-33 -93 0
33 120 0
-33 -120 0
33 156 0
-33 -156 0
33 158 0
-33 -158 0
34 37 0
-34 -37 0
34 50 0
-34 -50 0
34 53 0
-34 -53 0
34 55 0
-34 -55 0
34 64 0
-34 -64 0
34 73 0
-34 -73 0
34 74 0
-34 -74 0
34 84 0
-34 -84 0
34 119 0
-34 -119 0
34 155 0
-34 -155 0
35 38 0
-35 -38 0
35 41 0
-35 -41 0
35 57 0
-35 -57 0
35 62 0
-35 -62 0
35 63 0
-35 -63 0
35 73 0
-35 -73 0
35 74 0
-35 -74 0
35 80 0
-35 -80 0
35 82 0
-35 -82 0
35 83 0
-35 -83 0
35 89 0
-35 -89 0
35 92 0
-35 -92 0
35 95 0
-35 -95 0
35 146 0
-35 -146 0
35 156 0
-35 -156 0
36 55 0
-36 -55 0
36 59 0
-36 -59 0
36 78 0
-36 -78 0
36 82 0
-36 -82 0
36 120 0
-36 -120 0
36 130 0
-36 -130 0
36 147 0
-36 -147 0
37 40 0
-37 -40 0
37 49 0
-37 -49 0
37 76 0
-37 -76 0
37 95 0
-37 -95 0
37 125 0
-37 -125 0
37 126 0
-37 -126 0
37 131 0
-37 -131 0
37 145 0
-37 -145 0
37 151 0
-37 -151 0
38 46 0
-38 -46 0
38 58 0
-38 -58 0
38 60 0
-38 -60 0
38 74 0
-38 -74 0
38 79 0
-38 -79 0
38 93 0
-38 -93 0
38 112 0
-38 -112 0
38 122 0
-38 -122 0
38 124 0
-38 -124 0
38 140 0
-38 -140 0
38 149 0
-38 -149 0
38 160 0
-38 -160 0
39 43 0
-39 -43 0
39 61 0
-39 -61 0
39 63 0
-39 -63 0
39 100 0
-39 -100 0
39 104 0
-39 -104 0
39 109 0
-39 -109 0
39 121 0
-39 -121 0
39 126 0
-39 -126 0
39 131 0
-39 -131 0
39 137 0
-39 -137 0
39 138 0
-39 -138 0
39 140 0
-39 -140 0
39 142 0
-39 -142 0
39 149 0
-39 -149 0
39 152 0
-39 -152 0
40 51 0
-40 -51 0
40 52 0
-40 -52 0
40 54 0
-40 -54 0
40 58 0
-40 -58 0
40 68 0
-40 -68 0
40 73 0
-40 -73 0
40 86 0
-40 -86 0
40 92 0
-40 -92 0
40 94 0
-40 -94 0
40 105 0
-40 -105 0
40 109 0
-40 -109 0
40 132 0
-40 -132 0
40 139 0
-40 -139 0
40 141 0
-40 -141 0
40 143 0
-40 -143 0
40 155 0
-40 -155 0
40 157 0
-40 -157 0
41 72 0
-41 -72 0
41 93 0
-41 -93 0
41 109 0
-41 -109 0
41 114 0
-41 -114 0
41 116 0
-41 -116 0
41 121 0
-41 -121 0
41 144 0
-41 -144 0
42 84 0
-42 -84 0
42 104 0
-42 -104 0
42 129 0
-42 -129 0
42 134 0
-42 -134 0
42 147 0
-42 -147 0
43 47 0
-43 -47 0
43 49 0
-43 -49 0
43 50 0
-43 -50 0
43 81 0
-43 -81 0
43 103 0
-43 -103 0
43 110 0
-43 -110 0
43 112 0
-43 -112 0
43 116 0
-43 -116 0
43 118 0
-43 -118 0
43 131 0
-43 -131 0
43 144 0
-43 -144 0
44 47 0
-44 -47 0
44 61 0
-44 -61 0
44 92 0
-44 -92 0
44 114 0
-44 -114 0
44 123 0
-44 -123 0
44 127 0
-44 -127 0
44 148 0
-44 -148 0
45 61 0
-45 -61 0
45 67 0
-45 -67 0
45 78 0
-45 -78 0
45 99 0
-45 -99 0
45 104 0
-45 -104 0
45 108 0
-45 -108 0
45 144 0
-45 -144 0
45 146 0
-45 -146 0
46 47 0
-46 -47 0
46 48 0
-46 -48 0
46 61 0
-46 -61 0
46 80 0
-46 -80 0
46 84 0
-46 -84 0
46 92 0
-46 -92 0
46 97 0
-46 -97 0
46 99 0
-46 -99 0
46 136 0
-46 -136 0
46 139 0
-46 -139 0
46 143 0
-46 -143 0
47 49 0
-47 -49 0
47 54 0
-47 -54 0
47 90 0
-47 -90 0
47 113 0
-47 -113 0
47 117 0
-47 -117 0
47 121 0
-47 -121 0
47 135 0
-47 -135 0
47 139 0
-47 -139 0
47 147 0
-47 -147 0
47 153 0
-47 -153 0
48 61 0
-48 -61 0
48 106 0
-48 -106 0
48 114 0
-48 -114 0
48 121 0
-48 -121 0
48 128 0
-48 -128 0
48 132 0
-48 -132 0
48 144 0
-48 -144 0
48 150 0
-48 -150 0
48 154 0
-48 -154 0
48 156 0
-48 -156 0
49 52 0
-49 -52 0
49 81 0
-49 -81 0
49 91 0
-49 -91 0
49 116 0
-49 -116 0
49 128 0
-49 -128 0
49 129 0
-49 -129 0
49 134 0
-49 -134 0
49 144 0
-49 -144 0
50 66 0
-50 -66 0
50 93 0
-50 -93 0
50 104 0
-50 -104 0
50 106 0
-50 -106 0
50 114 0
-50 -114 0
50 141 0
-50 -141 0
50 152 0
-50 -152 0
51 68 0
-51 -68 0
51 71 0
-51 -71 0
51 93 0
-51 -93 0
51 99 0
-51 -99 0
51 112 0
-51 -112 0
51 119 0
-51 -119 0
51 133 0
-51 -133 0
51 151 0
-51 -151 0
52 61 0
-52 -61 0
52 68 0
-52 -68 0
52 71 0
-52 -71 0
52 97 0
-52 -97 0
52 105 0
-52 -105 0
52 109 0
-52 -109 0
52 127 0
-52 -127 0
52 138 0
-52 -138 0
52 149 0
-52 -149 0
53 69 0
-53 -69 0
53 95 0
-53 -95 0
53 102 0
-53 -102 0
54 70 0
-54 -70 0
54 81 0
-54 -81 0
54 98 0
-54 -98 0
54 100 0
-54 -100 0
54 102 0
-54 -102 0
54 126 0
-54 -126 0
54 130 0
-54 -130 0
54 146 0
-54 -146 0
54 159 0
-54 -159 0
55 61 0
-55 -61 0
55 67 0
-55 -67 0
55 68 0
-55 -68 0
55 73 0
-55 -73 0
55 90 0
-55 -90 0
55 105 0
-55 -105 0
56 58 0
-56 -58 0
56 67 0
-56 -67 0
56 77 0
-56 -77 0
56 100 0
-56 -100 0
56 118 0
-56 -118 0
56 149 0
-56 -149 0
56 158 0
-56 -158 0
57 78 0
-57 -78 0
57 92 0
-57 -92 0
57 112 0
-57 -112 0
57 126 0
-57 -126 0
57 127 0
-57 -127 0
57 134 0
-57 -134 0
57 146 0
-57 -146 0
57 147 0
-57 -147 0
58 64 0
-58 -64 0
58 74 0
-58 -74 0
58 77 0
-58 -77 0
58 96 0
-58 -96 0
58 147 0
-58 -147 0
59 86 0
-59 -86 0
59 88 0
-59 -88 0
59 115 0
-59 -115 0
59 116 0
-59 -116 0
59 122 0
-59 -122 0
59 150 0
-59 -150 0
60 69 0
-60 -69 0
60 74 0
-60 -74 0
60 82 0
-60 -82 0
60 107 0
-60 -107 0
60 116 0
-60 -116 0
60 144 0
-60 -144 0
60 151 0
-60 -151 0
60 160 0
-60 -160 0
61 62 0
-61 -62 0
61 69 0
-61 -69 0
61 88 0
-61 -88 0
61 90 0
-61 -90 0
61 104 0
-61 -104 0
61 123 0
-61 -123 0
61 140 0
-61 -140 0
61 144 0
-61 -144 0
62 96 0
-62 -96 0
62 103 0
-62 -103 0
62 112 0
-62 -112 0
62 115 0
-62 -115 0
62 139 0
-62 -139 0
62 151 0
-62 -151 0
62 153 0
-62 -153 0
63 66 0
-63 -66 0
63 80 0
-63 -80 0
63 96 0
-63 -96 0
63 101 0
-63 -101 0
63 103 0
-63 -103 0
63 110 0
-63 -110 0
63 119 0
-63 -119 0
63 129 0
-63 -129 0
63 132 0
-63 -132 0
63 142 0
-63 -142 0
63 156 0
-63 -156 0
63 160 0
-63 -160 0
64 73 0
-64 -73 0
64 79 0
-64 -79 0
64 80 0
-64 -80 0
64 89 0
-64 -89 0
64 90 0
-64 -90 0
64 129 0
-64 -129 0
64 133 0
-64 -133 0
64 134 0
-64 -134 0
65 99 0
-65 -99 0
65 114 0
-65 -114 0
65 116 0
-65 -116 0
65 117 0
-65 -117 0
65 129 0
-65 -129 0
66 69 0
-66 -69 0
66 72 0
-66 -72 0
66 81 0
-66 -81 0
66 84 0
-66 -84 0
66 114 0
-66 -114 0
66 116 0
-66 -116 0
66 120 0
-66 -120 0
67 72 0
-67 -72 0
67 74 0
-67 -74 0
67 77 0
-67 -77 0
67 99 0
-67 -99 0
67 106 0
-67 -106 0
67 112 0
-67 -112 0
67 120 0
-67 -120 0
67 124 0
-67 -124 0
67 125 0
-67 -125 0
67 134 0
-67 -134 0
67 141 0
-67 -141 0
68 77 0
-68 -77 0
68 91 0
-68 -91 0
68 101 0
-68 -101 0
68 123 0
-68 -123 0
68 124 0
-68 -124 0
68 147 0
-68 -147 0
69 78 0
-69 -78 0
69 103 0
-69 -103 0
69 118 0
-69 -118 0
69 123 0
-69 -123 0
69 138 0
-69 -138 0
69 144 0
-69 -144 0
69 149 0
-69 -149 0
69 156 0
-69 -156 0
70 77 0
-70 -77 0
70 86 0
-70 -86 0
70 87 0
-70 -87 0
70 110 0
-70 -110 0
70 126 0
-70 -126 0
70 132 0
-70 -132 0
70 154 0
-70 -154 0
71 80 0
-71 -80 0
71 96 0
-71 -96 0
71 100 0
-71 -100 0
71 105 0
-71 -105 0
71 126 0
-71 -126 0
71 134 0
-71 -134 0
72 75 0
-72 -75 0
72 88 0
-72 -88 0
72 102 0
-72 -102 0
72 111 0
-72 -111 0
72 112 0
-72 -112 0
72 131 0
-72 -131 0
72 141 0
-72 -141 0
73 117 0
-73 -117 0
73 122 0
-73 -122 0
73 129 0
-73 -129 0
73 134 0
-73 -134 0
73 141 0
-73 -141 0
74 83 0
-74 -83 0
74 96 0
-74 -96 0
74 110 0
-74 -110 0
74 121 0
-74 -121 0
74 125 0
-74 -125 0
74 134 0
-74 -134 0
75 85 0
-75 -85 0
75 88 0
-75 -88 0
75 110 0
-75 -110 0
75 120 0
-75 -120 0
75 133 0
-75 -133 0
75 139 0
-75 -139 0
75 140 0
-75 -140 0
75 154 0
-75 -154 0
75 155 0
-75 -155 0
75 159 0
-75 -159 0
76 85 0
-76 -85 0
76 98 0
-76 -98 0
76 125 0
-76 -125 0
76 145 0
-76 -145 0
76 153 0
-76 -153 0
77 88 0
-77 -88 0
77 94 0
-77 -94 0
77 107 0
-77 -107 0
77 112 0
-77 -112 0
77 153 0
-77 -153 0
78 82 0
-78 -82 0
78 113 0
-78 -113 0
78 121 0
-78 -121 0
78 123 0
-78 -123 0
78 132 0
-78 -132 0
79 85 0
-79 -85 0
79 98 0
-79 -98 0
79 126 0
-79 -126 0
79 159 0
-79 -159 0
79 160 0
-79 -160 0
80 92 0
-80 -92 0
80 96 0
-80 -96 0
80 125 0
-80 -125 0
80 134 0
-80 -134 0
81 83 0
-81 -83 0
81 85 0
-81 -85 0
81 95 0
-81 -95 0
81 125 0
-81 -125 0
81 129 0
-81 -129 0
82 127 0
-82 -127 0
82 129 0
-82 -129 0
82 130 0
-82 -130 0
82 131 0
-82 -131 0
82 137 0
-82 -137 0
82 160 0
-82 -160 0
83 91 0
-83 -91 0
83 122 0
-83 -122 0
83 131 0
-83 -131 0
84 94 0
-84 -94 0
84 106 0
-84 -106 0
84 130 0
-84 -130 0
84 145 0
-84 -145 0
84 150 0
-84 -150 0
84 158 0
-84 -158 0
84 159 0
-84 -159 0
85 96 0
-85 -96 0
85 107 0
-85 -107 0
85 111 0
-85 -111 0
85 112 0
-85 -112 0
85 116 0
-85 -116 0
85 120 0
-85 -120 0
85 127 0
-85 -127 0
85 131 0
-85 -131 0
85 137 0
-85 -137 0
85 138 0
-85 -138 0
85 140 0
-85 -140 0
85 155 0
-85 -155 0
86 105 0
-86 -105 0
86 106 0
-86 -106 0
86 124 0
-86 -124 0
87 146 0
-87 -146 0
87 155 0
-87 -155 0
88 90 0
-88 -90 0
88 104 0
-88 -104 0
88 106 0
-88 -106 0
88 107 0
-88 -107 0
88 110 0
-88 -110 0
88 116 0
-88 -116 0
88 117 0
-88 -117 0
88 130 0
-88 -130 0
89 93 0
-89 -93 0
89 96 0
-89 -96 0
89 126 0
-89 -126 0
89 151 0
-89 -151 0
89 152 0
-89 -152 0
89 155 0
-89 -155 0
89 158 0
-89 -158 0
90 94 0
-90 -94 0
90 121 0
-90 -121 0
90 159 0
-90 -159 0
91 93 0
-91 -93 0
91 112 0
-91 -112 0
91 120 0
-91 -120 0
91 137 0
-91 -137 0
91 138 0
-91 -138 0
92 95 0
-92 -95 0
92 124 0
-92 -124 0
93 100 0
-93 -100 0
93 108 0
-93 -108 0
93 149 0
-93 -149 0
93 153 0
-93 -153 0
93 158 0
-93 -158 0
94 95 0
-94 -95 0
94 101 0
-94 -101 0
94 119 0
-94 -119 0
94 128 0
-94 -128 0
94 133 0
-94 -133 0
94 146 0
-94 -146 0
95 112 0
-95 -112 0
95 117 0
-95 -117 0
95 119 0
-95 -119 0
95 123 0
-95 -123 0
96 107 0
-96 -107 0
96 121 0
-96 -121 0
96 145 0
-96 -145 0
97 110 0
-97 -110 0
97 132 0
-97 -132 0
97 151 0
-97 -151 0
97 153 0
-97 -153 0
97 160 0
-97 -160 0
98 103 0
-98 -103 0
98 116 0
-98 -116 0
98 150 0
-98 -150 0
98 153 0
-98 -153 0
99 105 0
-99 -105 0
99 149 0
-99 -149 0
99 160 0
-99 -160 0
100 113 0
-100 -113 0
100 119 0
-100 -119 0
100 121 0
-100 -121 0
100 135 0
-100 -135 0
100 143 0
-100 -143 0
100 147 0
-100 -147 0
101 136 0
-101 -136 0
101 147 0
-101 -147 0
101 160 0
-101 -160 0
102 125 0
-102 -125 0
102 128 0
-102 -128 0
102 141 0
-102 -141 0
103 110 0
-103 -110 0
103 143 0
-103 -143 0
103 154 0
-103 -154 0
103 156 0
-103 -156 0
104 130 0
-104 -130 0
104 134 0
-104 -134 0
104 158 0
-104 -158 0
105 134 0
-105 -134 0
105 145 0
-105 -145 0
105 155 0
-105 -155 0
105 157 0
-105 -157 0
106 119 0
-106 -119 0
106 122 0
-106 -122 0
106 130 0
-106 -130 0
106 135 0
-106 -135 0
106 144 0
-106 -144 0
107 110 0
-107 -110 0
107 116 0
-107 -116 0
107 130 0
-107 -130 0
107 148 0
-107 -148 0
107 157 0
-107 -157 0
107 160 0
-107 -160 0
108 118 0
-108 -118 0
108 131 0
-108 -131 0
108 140 0
-108 -140 0
108 150 0
-108 -150 0
108 151 0
-108 -151 0
108 156 0
-108 -156 0
108 160 0
-108 -160 0
109 110 0
-109 -110 0
109 119 0
-109 -119 0
110 114 0
-110 -114 0
110 118 0
-110 -118 0
110 122 0
-110 -122 0
110 133 0
-110 -133 0
110 135 0
-110 -135 0
110 151 0
-110 -151 0
111 121 0
-111 -121 0
111 146 0
-111 -146 0
111 156 0
-111 -156 0
112 139 0
-112 -139 0
113 123 0
-113 -123 0
113 124 0
-113 -124 0
113 136 0
-113 -136 0
113 145 0
-113 -145 0
113 151 0
-113 -151 0
113 152 0
-113 -152 0
113 156 0
-113 -156 0
114 120 0
-114 -120 0
114 124 0
-114 -124 0
114 132 0
-114 -132 0
114 133 0
-114 -133 0
114 153 0
-114 -153 0
114 154 0
-114 -154 0
114 158 0
-114 -158 0
115 132 0
-115 -132 0
115 134 0
-115 -134 0
115 159 0
-115 -159 0
116 117 0
-116 -117 0
116 119 0
-116 -119 0
117 139 0
-117 -139 0
117 147 0
-117 -147 0
117 153 0
-117 -153 0
117 154 0
-117 -154 0
118 123 0
-118 -123 0
119 123 0
-119 -123 0
119 142 0
-119 -142 0
119 155 0
-119 -155 0
120 129 0
-120 -129 0
120 145 0
-120 -145 0
120 150 0
-120 -150 0
121 148 0
-121 -148 0
121 152 0
-121 -152 0
121 154 0
-121 -154 0
122 126 0
-122 -126 0
122 137 0
-122 -137 0
122 149 0
-122 -149 0
122 152 0
-122 -152 0
123 131 0
-123 -131 0
123 133 0
-123 -133 0
123 138 0
-123 -138 0
123 151 0
-123 -151 0
123 154 0
-123 -154 0
123 157 0
-123 -157 0
124 136 0
-124 -136 0
124 151 0
-124 -151 0
124 153 0
-124 -153 0
124 155 0
-124 -155 0
124 159 0
-124 -159 0
125 129 0
-125 -129 0
125 131 0
-125 -131 0
125 135 0
-125 -135 0
125 142 0
-125 -142 0
125 158 0
-125 -158 0
126 157 0
-126 -157 0
127 136 0
-127 -136 0
128 134 0
-128 -134 0
128 137 0
-128 -137 0
128 156 0
-128 -156 0
129 137 0
-129 -137 0
129 140 0
-129 -140 0
129 150 0
-129 -150 0
129 157 0
-129 -157 0
129 160 0
-129 -160 0
130 135 0
-130 -135 0
130 143 0
-130 -143 0
130 149 0
-130 -149 0
131 135 0
-131 -135 0
131 160 0
-131 -160 0
132 160 0
-132 -160 0
133 141 0
-133 -141 0
133 142 0
-133 -142 0
133 153 0
-133 -153 0
134 141 0
-134 -141 0
135 140 0
-135 -140 0
135 143 0
-135 -143 0
135 147 0
-135 -147 0
136 145 0
-136 -145 0
137 152 0
-137 -152 0
137 155 0
-137 -155 0
139 141 0
-139 -141 0
139 147 0
-139 -147 0
139 153 0
-139 -153 0
140 142 0
-140 -142 0
141 148 0
-141 -148 0
141 158 0
-141 -158 0
142 153 0
-142 -153 0
142 159 0
-142 -159 0
143 145 0
-143 -145 0
143 149 0
-143 -149 0
143 153 0
-143 -153 0
143 160 0
-143 -160 0
144 158 0
-144 -158 0
145 157 0
-145 -157 0
150 159 0
-150 -159 0
153 156 0
-153 -156 0
159 160 0
-159 -160 0
